NAME : n100w180.004.804.tour
COMMENT : Length = 804
COMMENT : Found by LKH [Keld Helsgaun] Tue Nov  7 19:45:19 2017
TYPE : TOUR
DIMENSION : 101
TOUR_SECTION
1
40
90
28
70
23
79
13
98
58
12
16
95
96
14
4
35
49
72
20
100
77
26
42
41
8
92
31
53
55
93
37
5
66
3
43
34
45
48
91
39
44
63
25
19
80
89
76
60
83
75
22
97
74
59
68
81
69
78
71
33
18
61
11
65
84
86
32
62
82
30
36
73
67
38
24
50
57
7
21
52
15
54
10
99
88
56
47
64
6
9
51
27
87
29
46
2
17
85
94
101
-1
EOF
